BEGIN IONS
TITLE=EMBL_MCF_2_0_HRMS_Library000529
PEPMASS=111.02016
CHARGE=1-
PRECURSOR_TYPE=[M-H]-
PRECURSOR_MZ=111.02016
COLLISION_ENERGY=50.0
SMILES=[H]c1c([H])n([H])c(=O)n([H])c1=O
FORMULA=C4H4N2O2
THEORETICAL_PRECURSOR_MZ=111.019453
PPM=6.368253318682487
SIMULATED_PRECURSOR_MZ=111.01946768634916
41.0148 0.329893 
41.9986 89.226766 
55.8055 0.200544 
56.2625 0.194617 
67.0304 0.330612 
68.0258 0.402906 
111.0203 100.0 
112.0515 1.2809 
END IONS

BEGIN IONS
TITLE=EMBL_MCF_2_0_HRMS_Library000493
PEPMASS=129.0921
CHARGE=1-
PRECURSOR_TYPE=[M-H]-
PRECURSOR_MZ=129.0921
COLLISION_ENERGY=50.0
SMILES=[H]OC(=O)C([H])([H])C([H])([H])C([H])([H])C([H])([H])C([H])([H])C([H])([H])[H]
FORMULA=C7H14O2
THEORETICAL_PRECURSOR_MZ=129.091555
PPM=4.221809861909629
SIMULATED_PRECURSOR_MZ=129.09335894777138
40.5203 3.5 
57.0346 5.6 
59.0139 4.6 
64.8876 4.5 
69.1788 4.7 
69.8954 5.6 
70.612 4.0 
84.1053 3.9 
88.9218 4.2 
129.0568 7.3 
129.0923 100.0 
END IONS

BEGIN IONS
TITLE=EMBL_MCF_2_0_HRMS_Library000492
PEPMASS=148.026
CHARGE=1-
PRECURSOR_TYPE=[M-H]-
PRECURSOR_MZ=148.026
COLLISION_ENERGY=50.0
SMILES=[H]SC(=S)N(C([H])([H])C([H])([H])[H])C([H])([H])C([H])([H])[H]
FORMULA=C5H11NS2
THEORETICAL_PRECURSOR_MZ=148.025466
PPM=3.6074873766384337
SIMULATED_PRECURSOR_MZ=148.02533870340943
51.2506 3.1 
75.9448 27.9 
76.9525 21.1 
81.9533 3.7 
132.6821 3.1 
148.0262 100.0 
END IONS

BEGIN IONS
TITLE=EMBL_MCF_2_0_HRMS_Library000474
PEPMASS=89.0244
CHARGE=1-
PRECURSOR_TYPE=[M-H]-
PRECURSOR_MZ=89.0244
COLLISION_ENERGY=50.0
SMILES=[H]OC([H])([H])C(=O)C([H])([H])O[H]
FORMULA=C3H6O3
THEORETICAL_PRECURSOR_MZ=89.02387000000002
PPM=5.953459448387135
SIMULATED_PRECURSOR_MZ=89.02409589325147
40.2679 2.9 
41.0034 8.6 
43.0169 2.8 
43.019 15.7 
59.014 100.0 
59.0176 5.6 
68.7715 2.7 
71.0141 10.2 
89.0245 26.4 
END IONS

BEGIN IONS
TITLE=EMBL_MCF_2_0_HRMS_Library000473
PEPMASS=315.0807
CHARGE=1-
PRECURSOR_TYPE=[2M-H]-
PRECURSOR_MZ=315.0807
COLLISION_ENERGY=50.0
SMILES=[H]N=C(O[H])N([H])C1([H])N=C(O[H])N=C1O[H]
FORMULA=C4H6N4O3
THEORETICAL_PRECURSOR_MZ=315.080157
PPM=1.7233709833186952
SIMULATED_PRECURSOR_MZ=315.0802858421536
52.0963 19.4 
97.0048 100.0 
100.9452 19.4 
108.2912 19.9 
114.0314 88.8 
125.6897 20.2 
157.0369 58.3 
END IONS

BEGIN IONS
TITLE=EMBL_MCF_2_0_HRMS_Library000472
PEPMASS=157.0367
CHARGE=1-
PRECURSOR_TYPE=[M-H]-
PRECURSOR_MZ=157.0367
COLLISION_ENERGY=50.0
SMILES=[H]N=C(O[H])N([H])C1([H])N=C(O[H])N=C1O[H]
FORMULA=C4H6N4O3
THEORETICAL_PRECURSOR_MZ=157.036166
PPM=3.4004905595288153
SIMULATED_PRECURSOR_MZ=157.03738842139936
41.9986 100.0 
59.0252 5.7 
71.0252 10.6 
72.0092 1.4 
97.0045 58.5 
114.0311 45.7 
140.0103 3.6 
157.0368 4.7 
END IONS

BEGIN IONS
TITLE=EMBL_MCF_2_0_HRMS_Library000465
PEPMASS=173.0455
CHARGE=1-
PRECURSOR_TYPE=[M-H]-
PRECURSOR_MZ=173.0455
COLLISION_ENERGY=50.0
SMILES=[H]OC(=O)C1=C([H])C([H])(O[H])C([H])(O[H])C([H])(O[H])C1([H])[H]
FORMULA=C7H10O5
THEORETICAL_PRECURSOR_MZ=173.045
PPM=2.8894218267883978
SIMULATED_PRECURSOR_MZ=173.0477272991401
40.6542 1.0 
40.8726 1.0 
41.0034 3.4 
43.019 16.9 
44.9984 2.3 
55.019 9.0 
57.0348 3.3 
58.0062 4.1 
59.0141 5.9 
65.0399 3.4 
69.0347 3.7 
71.0139 7.7 
71.0504 1.5 
73.0296 59.2 
81.0348 8.7 
83.0146 1.2 
83.0504 23.4 
85.0297 8.3 
93.0347 100.0 
99.0088 11.9 
99.0452 11.3 
111.0454 28.9 
113.2265 1.1 
129.0197 4.5 
129.056 1.2 
137.0246 24.2 
143.0353 3.9 
155.0356 8.2 
173.046 14.5 
END IONS

BEGIN IONS
TITLE=EMBL_MCF_2_0_HRMS_Library000455
PEPMASS=146.0459
CHARGE=1-
PRECURSOR_TYPE=[M-H]-
PRECURSOR_MZ=146.0459
COLLISION_ENERGY=50.0
SMILES=[H]OC(=O)C([H])(N([H])C(=O)C([H])([H])[H])C([H])([H])O[H]
FORMULA=C5H9NO4
THEORETICAL_PRECURSOR_MZ=146.045334
PPM=3.87550895663721
SIMULATED_PRECURSOR_MZ=146.04462032641365
41.0033 14.1 
41.9986 3.8 
57.0347 11.8 
58.0299 1.7 
60.9932 3.2 
70.03 2.0 
72.0456 22.1 
74.0248 100.0 
84.0456 52.6 
98.0248 36.8 
104.0355 11.2 
116.0355 48.2 
146.0461 25.0 
END IONS

BEGIN IONS
TITLE=EMBL_MCF_2_0_HRMS_Library000420
PEPMASS=349.1841
CHARGE=1-
PRECURSOR_TYPE=[2M-H]-
PRECURSOR_MZ=349.1841
COLLISION_ENERGY=50.0
SMILES=[H]OC(=O)C([H])(N([H])[H])C([H])([H])C([H])([H])C([H])([H])N([H])C(=O)N([H])[H]
FORMULA=C6H13N3O3
THEORETICAL_PRECURSOR_MZ=349.183559
PPM=1.549328386329748
SIMULATED_PRECURSOR_MZ=349.17782769410087
51.6019 1.5 
52.4898 1.5 
71.5754 1.5 
131.0828 100.0 
174.0883 18.7 
175.2295 2.0 
277.0486 1.9 
END IONS

BEGIN IONS
TITLE=EMBL_MCF_2_0_HRMS_Library000412
PEPMASS=149.0455
CHARGE=1-
PRECURSOR_TYPE=[M-H]-
PRECURSOR_MZ=149.0455
COLLISION_ENERGY=50.0
SMILES=[H]OC([H])([H])C1([H])OC([H])(O[H])C([H])(O[H])C1([H])O[H]
FORMULA=C5H10O5
THEORETICAL_PRECURSOR_MZ=149.045
PPM=3.354691536224619
SIMULATED_PRECURSOR_MZ=149.04487829289536
41.0033 1.6 
43.019 1.3 
59.014 100.0 
71.014 18.0 
85.0296 1.2 
89.0246 14.8 
89.031 1.2 
END IONS

BEGIN IONS
TITLE=EMBL_MCF_2_0_HRMS_Library000381
PEPMASS=131.0826
CHARGE=1-
PRECURSOR_TYPE=[M-H]-
PRECURSOR_MZ=131.0826
COLLISION_ENERGY=50.0
SMILES=[H]OC(=O)C([H])(N([H])[H])C([H])([H])C([H])([H])C([H])([H])N([H])[H]
FORMULA=C5H12N2O2
THEORETICAL_PRECURSOR_MZ=131.082053
PPM=4.172958749826885
SIMULATED_PRECURSOR_MZ=131.0825886790199
61.9885 29.2 
83.0616 1.4 
85.0773 1.0 
87.0453 5.4 
131.0352 2.6 
131.0828 100.0 
END IONS

BEGIN IONS
TITLE=EMBL_MCF_2_0_HRMS_Library000378
PEPMASS=161.0932
CHARGE=1-
PRECURSOR_TYPE=[M-H]-
PRECURSOR_MZ=161.0932
COLLISION_ENERGY=50.0
SMILES=[H]OC(=O)C([H])(N([H])[H])C([H])([H])C([H])([H])C([H])(O[H])C([H])([H])N([H])[H]
FORMULA=C6H14N2O3
THEORETICAL_PRECURSOR_MZ=161.092618
PPM=3.612828491051776
SIMULATED_PRECURSOR_MZ=161.09374641946536
58.0299 5.4 
70.0299 1.0 
72.0455 2.8 
73.0296 1.0 
74.0249 3.0 
84.0457 3.8 
97.0301 1.1 
102.0561 3.7 
114.0563 1.8 
115.0878 15.3 
125.0722 5.8 
126.0566 1.2 
141.0668 5.4 
143.0828 14.4 
159.0778 3.7 
161.0934 100.0 
END IONS

BEGIN IONS
TITLE=EMBL_MCF_2_0_HRMS_Library000377
PEPMASS=124.0074
CHARGE=1-
PRECURSOR_TYPE=[M-H]-
PRECURSOR_MZ=124.0074
COLLISION_ENERGY=50.0
SMILES=[H]OS(=O)(=O)C([H])([H])C([H])([H])N([H])[H]
FORMULA=C2H7NO3S
THEORETICAL_PRECURSOR_MZ=124.00684000000001
PPM=4.515879930437793
SIMULATED_PRECURSOR_MZ=124.0066148879475
64.9704 1.0 
79.9575 66.1 
106.981 1.3 
123.9022 1.2 
124.0076 100.0 
END IONS

BEGIN IONS
TITLE=EMBL_MCF_2_0_HRMS_Library000366
PEPMASS=173.1044
CHARGE=1-
PRECURSOR_TYPE=[M-H]-
PRECURSOR_MZ=173.1044
COLLISION_ENERGY=50.0
SMILES=[H]N=C(N([H])[H])N([H])C([H])([H])C([H])([H])C([H])([H])C([H])(C(=O)O[H])N([H])[H]
FORMULA=C6H14N4O2
THEORETICAL_PRECURSOR_MZ=173.10385100000002
PPM=3.171506565605812
SIMULATED_PRECURSOR_MZ=173.10315585340553
41.0146 3.8 
58.0413 1.1 
114.0566 1.4 
131.0829 100.0 
156.078 3.3 
173.1048 7.0 
END IONS

BEGIN IONS
TITLE=EMBL_MCF_2_0_HRMS_Library000347
PEPMASS=88.04044
CHARGE=1-
PRECURSOR_TYPE=[M-H]-
PRECURSOR_MZ=88.04044
COLLISION_ENERGY=50.0
SMILES=[H]OC(=O)C([H])([H])N([H])C([H])([H])[H]
FORMULA=C3H7NO2
THEORETICAL_PRECURSOR_MZ=88.039854
PPM=6.65607646280764
SIMULATED_PRECURSOR_MZ=88.03964033406393
45.77 1.7 
46.0654 1.6 
62.0101 1.7 
71.6379 1.7 
79.0179 1.9 
79.107 1.5 
80.0905 1.7 
88.0406 100.0 
END IONS

BEGIN IONS
TITLE=EMBL_MCF_2_0_HRMS_Library000328
PEPMASS=173.0092
CHARGE=1-
PRECURSOR_TYPE=[M-H]-
PRECURSOR_MZ=173.0092
COLLISION_ENERGY=50.0
SMILES=[H]OC(=O)C([H])=C(C(=O)O[H])C([H])([H])C(=O)O[H]
FORMULA=C6H6O6
THEORETICAL_PRECURSOR_MZ=173.008615
PPM=3.381334507538517
SIMULATED_PRECURSOR_MZ=173.0089898725635
67.0192 1.0 
85.0297 100.0 
111.009 9.4 
129.0196 16.9 
173.0092 1.5 
END IONS

BEGIN IONS
TITLE=EMBL_MCF_2_0_HRMS_Library000324
PEPMASS=89.0244
CHARGE=1-
PRECURSOR_TYPE=[M-H]-
PRECURSOR_MZ=89.0244
COLLISION_ENERGY=50.0
SMILES=[H]OC([H])([H])C([H])(O[H])C([H])=O
FORMULA=C3H6O3
THEORETICAL_PRECURSOR_MZ=89.02387000000002
PPM=5.953459448387135
SIMULATED_PRECURSOR_MZ=89.0235409199675
41.0034 11.0 
42.5235 1.6 
43.019 22.4 
44.9982 3.6 
58.3766 1.8 
59.014 100.0 
71.0141 15.4 
89.0246 27.8 
END IONS

BEGIN IONS
TITLE=EMBL_MCF_2_0_HRMS_Library000319
PEPMASS=133.0142
CHARGE=1-
PRECURSOR_TYPE=[M-H]-
PRECURSOR_MZ=133.0142
COLLISION_ENERGY=50.0
SMILES=[H]OC(=O)C([H])([H])C([H])(O[H])C(=O)O[H]
FORMULA=C4H6O5
THEORETICAL_PRECURSOR_MZ=133.0137
PPM=3.759011289725619
SIMULATED_PRECURSOR_MZ=133.01420660577767
41.0033 1.5 
43.019 9.6 
59.014 2.3 
71.014 65.0 
72.9933 17.1 
87.0089 2.2 
89.0246 7.7 
115.0039 100.0 
133.0145 46.2 
END IONS

BEGIN IONS
TITLE=EMBL_MCF_2_0_HRMS_Library000318
PEPMASS=174.0408
CHARGE=1-
PRECURSOR_TYPE=[M-H]-
PRECURSOR_MZ=174.0408
COLLISION_ENERGY=50.0
SMILES=[H]OC(=O)C([H])([H])C([H])(C(=O)O[H])N([H])C(=O)C([H])([H])[H]
FORMULA=C6H9NO5
THEORETICAL_PRECURSOR_MZ=174.040249
PPM=3.1659343351176346
SIMULATED_PRECURSOR_MZ=174.03658826810724
41.9987 5.7 
58.03 59.8 
59.014 18.2 
70.03 2.2 
71.014 10.0 
88.0406 100.0 
96.9933 3.9 
112.0408 3.8 
114.0199 12.2 
115.004 11.5 
130.0513 19.5 
132.0307 1.5 
156.0306 3.7 
174.041 18.6 
END IONS

BEGIN IONS
TITLE=EMBL_MCF_2_0_HRMS_Library000308
PEPMASS=173.0932
CHARGE=1-
PRECURSOR_TYPE=[M-H]-
PRECURSOR_MZ=173.0932
COLLISION_ENERGY=50.0
SMILES=[H]OC(=O)C([H])(N=C(O[H])C([H])([H])[H])C([H])([H])C([H])([H])C([H])([H])N([H])[H]
FORMULA=C7H14N2O3
THEORETICAL_PRECURSOR_MZ=173.092618
PPM=3.362361761773805
SIMULATED_PRECURSOR_MZ=173.0902233931632
41.9986 1.8 
58.0299 15.5 
83.0616 3.6 
85.0771 1.4 
112.077 3.9 
129.1037 11.5 
131.0829 100.0 
173.0934 15.1 
END IONS

BEGIN IONS
TITLE=EMBL_MCF_2_0_HRMS_Library000302
PEPMASS=162.023
CHARGE=1-
PRECURSOR_TYPE=[M-H]-
PRECURSOR_MZ=162.023
COLLISION_ENERGY=50.0
SMILES=[H]OC(=O)C([H])(N([H])C(=O)C([H])([H])[H])C([H])([H])S[H]
FORMULA=C5H9NO3S
THEORETICAL_PRECURSOR_MZ=162.02249
PPM=3.147711160292319
SIMULATED_PRECURSOR_MZ=162.0244954816103
41.0035 2.9 
41.9683 2.1 
57.0347 9.3 
66.502 1.8 
84.0456 100.0 
138.6213 1.8 
162.0232 14.1 
END IONS

